<number of tasks>
100

<cycle time>
1000

<order strength>
0.598


<task times>
1 382
2 612
3 428
4 799
5 554
6 574
7 482
8 440
9 524
10 494
11 771
12 489
13 610
14 406
15 483
16 651
17 590
18 411
19 584
20 407
21 777
22 513
23 403
24 532
25 436
26 413
27 493
28 490
29 401
30 657
31 673
32 518
33 662
34 411
35 620
36 457
37 333
38 634
39 223
40 500
41 426
42 613
43 539
44 451
45 571
46 362
47 493
48 486
49 565
50 456
51 458
52 343
53 633
54 536
55 375
56 441
57 476
58 549
59 395
60 464
61 404
62 457
63 423
64 487
65 584
66 572
67 487
68 368
69 630
70 456
71 191
72 650
73 446
74 571
75 482
76 501
77 681
78 375
79 444
80 274
81 229
82 406
83 719
84 407
85 403
86 364
87 494
88 469
89 548
90 598
91 386
92 636
93 507
94 716
95 387
96 654
97 633
98 394
99 519
100 507

<precedence relations>
1,6
2,5
2,7
2,8
3,7
3,8
4,7
4,8
5,10
6,11
7,9
7,12
7,13
7,14
8,12
8,13
8,14
9,15
10,17
11,16
12,18
12,19
12,20
12,21
12,22
13,19
13,20
13,21
13,22
14,19
14,20
14,21
14,22
15,26
16,27
17,24
18,25
19,23
19,26
19,27
19,28
19,29
20,26
20,27
20,28
20,29
21,26
21,27
21,28
21,29
22,26
22,27
22,28
22,29
23,30
24,31
25,32
26,32
26,33
26,34
26,35
26,40
27,32
27,33
27,34
28,47
28,67
29,34
29,35
30,40
31,37
32,36
32,63
33,38
33,46
33,47
33,63
34,38
34,39
34,47
35,87
35,96
36,43
37,42
38,41
38,44
38,70
39,45
39,46
39,48
40,47
40,67
40,71
41,49
42,51
43,52
44,53
45,54
46,50
46,55
46,67
47,66
48,56
48,57
49,60
50,58
51,59
52,62
53,62
54,62
55,61
56,62
56,63
57,62
57,63
58,64
59,66
60,65
61,68
62,66
63,66
63,67
63,68
63,69
63,70
63,71
63,79
64,72
65,74
66,74
66,76
66,84
67,73
67,74
67,80
67,84
68,75
69,75
70,82
70,90
71,75
71,85
72,79
73,78
74,77
74,82
75,80
76,81
77,83
78,85
79,84
79,89
80,86
80,87
81,85
81,86
81,87
82,91
82,99
83,89
84,88
84,90
84,93
85,100
86,89
86,90
86,91
86,97
87,90
87,92
87,93
87,98
88,94
89,99
90,95
91,96
91,98
93,97
94,99
95,100
97,100

<end>
